c Result of efficient AIG-to-CNF conversion using package CNF
p cnf 486 1752
-2 -3 5 0
-2 5 275 355 0
2 -5 0
2 3 -355 0
2 3 -275 0
-3 456 457 4 0
3 -4 0
3 -457 0
3 -456 0
-4 454 455 0
4 -454 0
4 -455 0
5 6 -260 0
5 6 -18 0
5 6 -240 0
-5 -6 0
-5 18 240 260 0
-6 481 7 0
6 -481 0
6 -7 0
-7 458 459 3 8 0
7 -458 0
7 -8 0
7 -3 0
7 -459 0
-8 9 13 16 17 0
8 -17 0
8 -9 0
8 -16 0
8 -13 0
-9 468 10 11 0
9 -11 0
9 -10 0
9 -468 0
-10 466 467 0
10 -466 0
10 -467 0
-11 460 461 12 0
11 -12 0
11 -461 0
11 -460 0
-12 462 463 464 465 0
12 -465 0
12 -464 0
12 -462 0
12 -463 0
-13 471 14 15 0
13 -15 0
13 -14 0
13 -471 0
-14 469 470 0
14 -469 0
14 -470 0
-15 472 473 474 0
15 -472 0
15 -474 0
15 -473 0
-16 478 479 480 0
16 -478 0
16 -480 0
16 -479 0
-17 475 476 477 0
17 -475 0
17 -477 0
17 -476 0
-18 19 182 221 233 0
18 -233 0
18 -221 0
18 -19 0
18 -182 0
19 -482 20 -175 0
19 482 20 -169 0
-19 -20 0
-19 -482 175 0
-19 482 169 0
20 21 -135 -165 0
20 21 135 -136 0
-20 -21 0
-20 -135 165 0
-20 135 136 0
-21 22 134 0
21 -22 0
21 -134 0
-22 35 70 132 0
-22 -23 70 132 0
22 -70 0
22 -132 0
22 23 -35 0
-23 449 24 0
23 -449 0
23 -24 0
-24 25 31 33 34 0
24 -34 0
24 -25 0
24 -33 0
24 -31 0
-25 446 447 26 28 0
25 -446 0
25 -28 0
25 -26 0
25 -447 0
-26 438 444 445 27 0
26 -27 0
26 -445 0
26 -438 0
26 -444 0
-27 442 443 448 0
27 -442 0
27 -448 0
27 -443 0
-28 439 440 441 29 0
28 -29 0
28 -441 0
28 -439 0
28 -440 0
-29 434 435 30 0
29 -30 0
29 -435 0
29 -434 0
-30 430 431 436 437 0
30 -437 0
30 -436 0
30 -430 0
30 -431 0
-31 428 432 433 32 0
31 -32 0
31 -433 0
31 -428 0
31 -432 0
-32 426 427 0
32 -426 0
32 -427 0
-33 422 429 0
33 -422 0
33 -429 0
-34 423 424 425 0
34 -423 0
34 -425 0
34 -424 0
-35 36 45 0
-35 450 45 0
35 -45 0
35 -450 -36 0
-36 -451 37 44 0
-36 451 37 42 0
36 -37 0
36 -451 -44 0
36 451 -42 0
37 -451 -452 0
37 451 -38 0
37 -451 -41 0
-37 451 38 0
-37 -451 452 41 0
38 452 -39 0
38 -452 -40 0
-38 -452 40 0
-38 452 39 0
39 -446 -453 0
39 -445 453 0
-39 445 453 0
-39 446 -453 0
40 -448 -453 0
40 -447 453 0
-40 447 453 0
-40 448 -453 0
41 -450 -453 0
41 -449 453 0
-41 449 453 0
-41 450 -453 0
42 -452 -39 0
42 452 -43 0
-42 452 43 0
-42 -452 39 0
43 -444 -453 0
43 -443 453 0
-43 443 453 0
-43 444 -453 0
44 452 -40 0
44 -452 -41 0
-44 -452 41 0
-44 452 40 0
-45 -450 46 0
-45 450 53 64 0
45 450 -64 0
45 -450 -46 0
45 450 -53 0
-46 47 52 0
46 -47 0
46 -52 0
47 451 -48 0
47 -451 -51 0
-47 -451 51 0
-47 451 48 0
48 452 -49 0
48 -452 -50 0
-48 -452 50 0
-48 452 49 0
49 -447 -453 0
49 -446 453 0
-49 446 453 0
-49 447 -453 0
50 -449 -453 0
50 -448 453 0
-50 448 453 0
-50 449 -453 0
-51 451 452 -453 0
-51 450 452 453 0
51 -452 0
51 -450 453 0
51 -451 -453 0
52 451 -44 0
52 -451 452 453 0
-52 -451 -452 0
-52 451 44 0
-52 -451 -453 0
-53 -451 54 61 0
-53 451 54 58 0
53 -54 0
53 -451 -61 0
53 451 -58 0
54 -451 -42 0
54 451 -55 0
-54 451 55 0
-54 -451 42 0
55 452 -56 0
55 -452 -57 0
-55 -452 57 0
-55 452 56 0
56 -440 -453 0
56 -439 453 0
-56 439 453 0
-56 440 -453 0
57 -442 -453 0
57 -441 453 0
-57 441 453 0
-57 442 -453 0
58 452 -59 0
58 -452 -60 0
-58 -452 60 0
-58 452 59 0
59 -439 -453 0
59 -438 453 0
-59 438 453 0
-59 439 -453 0
60 -441 -453 0
60 -440 453 0
-60 440 453 0
-60 441 -453 0
61 452 -62 0
61 -452 -63 0
-61 -452 63 0
-61 452 62 0
62 -443 -453 0
62 -442 453 0
-62 442 453 0
-62 443 -453 0
63 -445 -453 0
63 -444 453 0
-63 444 453 0
-63 445 -453 0
64 451 -69 0
64 -451 -65 0
64 451 -66 0
-64 -451 65 0
-64 451 66 69 0
-65 -452 43 57 0
-65 452 56 57 0
65 -57 0
65 452 -56 0
65 -452 -43 0
66 452 -67 0
66 -452 -68 0
-66 -452 68 0
-66 452 67 0
67 -436 -453 0
67 -435 453 0
-67 435 453 0
-67 436 -453 0
68 -438 -453 0
68 -437 453 0
-68 437 453 0
-68 438 -453 0
69 -452 -56 0
69 452 -68 0
-69 452 68 0
-69 -452 56 0
-70 71 128 0
-70 -24 128 0
70 -128 0
70 24 -71 0
-71 -450 72 119 0
-71 450 97 119 0
71 -119 0
71 -450 -72 0
71 450 -97 0
-72 53 64 73 94 0
72 -73 0
72 -94 0
72 -53 0
72 -64 0
-73 74 75 79 91 0
73 -75 0
73 -79 0
73 -74 0
73 -91 0
74 451 452 -453 0
-74 453 0
-74 -452 0
-74 -451 0
-75 76 77 0
75 -76 0
75 -77 0
76 451 -452 0
76 -450 451 453 0
-76 -451 0
-76 452 -453 0
-76 450 452 0
77 451 -78 0
-77 -451 0
-77 78 0
78 -451 -452 0
78 452 -41 0
78 -452 -453 0
-78 452 41 0
-78 451 -452 453 0
79 80 -88 0
79 -451 80 0
79 80 -85 0
-79 -80 0
-79 451 85 88 0
80 -81 82 0
-80 81 0
-80 -82 0
81 -451 66 0
-81 451 0
-81 -66 0
82 452 -83 0
82 -452 -84 0
-82 -452 84 0
-82 452 83 0
83 -435 -453 0
83 -434 453 0
-83 434 453 0
-83 435 -453 0
84 -437 -453 0
84 -436 453 0
-84 436 453 0
-84 437 -453 0
85 452 -86 0
85 -452 -87 0
-85 -452 87 0
-85 452 86 0
86 -431 -453 0
86 -430 453 0
-86 430 453 0
-86 431 -453 0
87 -433 -453 0
87 -432 453 0
-87 432 453 0
-87 433 -453 0
88 452 -89 0
88 -452 -90 0
-88 -452 90 0
-88 452 89 0
89 -432 -453 0
89 -431 453 0
-89 431 453 0
-89 432 -453 0
90 -434 -453 0
90 -433 453 0
-90 433 453 0
-90 434 -453 0
-91 451 93 0
-91 -451 92 0
91 -451 -92 0
91 451 -93 0
92 -452 -59 0
92 452 -84 0
-92 452 84 0
-92 -452 59 0
93 -452 -83 0
93 452 -87 0
-93 452 87 0
-93 -452 83 0
94 451 -95 0
94 -451 -96 0
-94 -451 96 0
-94 451 95 0
95 452 -60 0
95 -452 -62 0
-95 -452 62 0
-95 452 60 0
96 -452 -49 0
96 452 -63 0
-96 452 63 0
-96 -452 49 0
-97 88 93 98 111 0
97 -111 0
97 -98 0
97 -88 0
97 -93 0
98 99 -108 0
98 -451 99 0
98 99 -102 0
-98 -99 0
-98 451 102 108 0
99 -81 100 0
-99 81 0
-99 -100 0
-100 67 92 101 0
-100 452 92 101 0
100 -101 0
100 -92 0
100 -452 -67 0
-101 -452 84 0
-101 452 83 90 0
101 452 -90 0
101 -452 -84 0
101 452 -83 0
-102 -452 104 107 0
-102 103 104 107 0
102 -107 0
102 -104 0
102 452 -103 0
103 -426 -453 0
103 -425 453 0
-103 425 453 0
-103 426 -453 0
104 452 -105 0
104 -452 -106 0
-104 -452 106 0
-104 452 105 0
105 -427 -453 0
105 -426 453 0
-105 426 453 0
-105 427 -453 0
106 -429 -453 0
106 -428 453 0
-106 428 453 0
-106 429 -453 0
107 -427 -452 453 0
107 -428 -452 -453 0
-107 452 0
-107 428 -453 0
-107 427 453 0
108 452 -106 0
108 -452 -110 0
108 452 -109 0
-108 -452 110 0
-108 452 106 109 0
109 -428 -453 0
109 -427 453 0
-109 427 453 0
-109 428 -453 0
-110 430 431 -453 0
-110 429 430 453 0
110 -430 0
110 -429 453 0
110 -431 -453 0
-111 452 112 114 0
-111 89 112 114 0
111 -114 0
111 -112 0
111 -452 -89 0
-112 -452 87 0
-112 452 86 113 0
112 452 -113 0
112 -452 -87 0
112 452 -86 0
113 -430 -453 0
113 -429 453 0
-113 429 453 0
-113 430 -453 0
-114 451 115 0
-114 -451 104 108 0
114 -451 -104 0
114 451 -115 0
114 -451 -108 0
-115 452 116 0
-115 103 105 116 0
115 -116 0
115 -452 -105 0
115 -452 -103 0
-116 424 117 0
-116 -452 -453 117 0
116 -117 0
116 -424 452 0
116 -424 453 0
-117 425 118 0
-117 453 118 0
117 -118 0
117 -425 -453 0
118 -423 452 0
118 -422 452 453 0
-118 -452 0
-118 423 -453 0
-118 422 423 0
-119 449 451 121 0
-119 449 120 121 0
119 -449 0
119 -121 0
119 -451 -120 0
-120 58 69 95 0
120 -58 0
120 -95 0
120 -69 0
-121 -451 122 125 0
-121 100 122 125 0
121 -125 0
121 -122 0
121 451 -100 0
122 451 -96 0
122 -451 -123 0
-122 -451 123 0
-122 451 96 0
123 452 -50 0
123 -452 -124 0
-123 -452 124 0
-123 452 50 0
124 -451 -453 0
124 -450 453 0
-124 450 453 0
-124 451 -453 0
125 -451 -38 0
125 451 -126 0
125 -451 -48 0
-125 451 126 0
-125 -451 38 48 0
-126 61 127 0
126 -61 0
126 -127 0
127 -452 -43 0
127 452 -57 0
-127 452 57 0
-127 -452 43 0
-128 -23 0
-128 -450 129 0
-128 129 131 0
128 23 -129 0
128 450 23 -131 0
129 450 -94 0
129 -450 -130 0
-129 -450 130 0
-129 450 94 0
130 451 -123 0
130 -451 452 -453 0
-130 -451 -452 0
-130 451 123 0
-130 -451 453 0
-131 52 130 0
131 -52 0
131 -130 0
132 -47 133 0
132 -36 133 0
-132 -133 0
-132 36 47 0
-133 450 23 0
133 -450 0
133 -23 0
134 450 23 -77 0
-134 77 0
-134 -23 0
-134 -450 0
135 450 451 -452 23 0
-135 -450 0
-135 -23 0
-135 452 0
-135 -451 0
136 137 -138 0
136 -137 -151 0
-136 -137 151 0
-136 137 138 0
137 451 452 -453 133 0
-137 -451 0
-137 -133 0
-137 453 0
-137 -452 0
138 6 -139 0
-138 -6 0
-138 139 0
139 482 -140 0
139 -482 -147 0
-139 -482 147 0
-139 482 140 0
140 483 -141 0
140 -483 -144 0
-140 -483 144 0
-140 483 141 0
141 484 -142 0
141 -484 -143 0
-141 -484 143 0
-141 484 142 0
142 -443 -485 0
142 -442 485 0
-142 442 485 0
-142 443 -485 0
143 -445 -485 0
143 -444 485 0
-143 444 485 0
-143 445 -485 0
144 484 -145 0
144 -484 -146 0
-144 -484 146 0
-144 484 145 0
145 -447 -485 0
145 -446 485 0
-145 446 485 0
-145 447 -485 0
-146 448 485 0
-146 449 -485 0
146 -449 -485 0
146 -448 485 0
147 483 -148 0
-147 -483 0
-147 148 0
148 -484 -150 0
148 484 -149 0
-148 484 149 0
-148 -484 150 0
-149 450 485 0
-149 451 -485 0
149 -451 -485 0
149 -450 485 0
150 -453 -485 0
150 -452 485 0
-150 452 485 0
-150 453 -485 0
151 152 -154 160 0
-151 -152 0
-151 154 0
-151 -160 0
-152 471 153 0
152 -471 0
152 -153 0
-153 481 16 0
153 -481 0
153 -16 0
154 482 -155 0
154 -482 -158 0
-154 -482 158 0
-154 482 155 0
155 483 -156 0
155 -483 -157 0
-155 -483 157 0
-155 483 156 0
156 484 -143 0
156 -484 -145 0
-156 -484 145 0
-156 484 143 0
157 -484 -149 0
157 484 -146 0
-157 484 146 0
-157 -484 149 0
158 483 -159 0
-158 -483 0
-158 159 0
159 -452 484 485 0
159 -453 484 -485 0
-159 -484 0
-159 453 -485 0
-159 452 485 0
-160 468 4 14 161 0
160 -468 0
160 -161 0
160 -14 0
160 -4 0
-161 11 162 163 164 0
161 -164 0
161 -11 0
161 -163 0
161 -162 0
-162 456 457 458 0
162 -456 0
162 -458 0
162 -457 0
-163 459 10 0
163 -459 0
163 -10 0
-164 472 473 474 17 0
164 -17 0
164 -474 0
164 -472 0
164 -473 0
165 137 -166 0
165 -137 -168 0
-165 -137 168 0
-165 137 166 0
166 6 -167 0
-166 -6 0
-166 167 0
167 482 -147 0
-167 -482 0
-167 147 0
168 482 152 -158 160 0
-168 -482 0
-168 -160 0
-168 158 0
-168 -152 0
169 483 -170 0
169 -483 -173 0
-169 -483 173 0
-169 483 170 0
170 484 -142 0
170 -484 -171 0
-170 -484 171 0
-170 484 142 0
171 -445 -485 0
171 485 -172 0
-171 445 -485 0
-171 485 172 0
172 -444 21 0
172 21 -135 0
-172 -21 0
-172 444 135 0
173 484 -145 0
173 -484 -174 0
-173 -484 174 0
-173 484 145 0
-174 448 485 0
-174 449 -485 0
-174 -485 -22 0
174 -448 485 0
174 -449 -485 22 0
175 483 -176 0
-175 -483 0
-175 176 0
176 -484 -179 0
176 484 -177 0
-176 484 177 0
-176 -484 179 0
-177 485 -22 0
-177 -485 178 0
-177 450 485 0
177 -485 -178 0
177 -450 485 22 0
178 -451 21 0
178 21 -137 0
-178 -21 0
-178 451 137 0
179 485 -180 0
179 -485 -181 0
-179 -485 181 0
-179 485 180 0
180 -452 21 135 0
-180 452 0
-180 -21 0
-180 -135 0
181 -453 21 135 137 0
-181 -21 0
-181 -137 0
-181 453 0
-181 -135 0
182 -482 183 -217 0
182 482 183 -212 0
-182 -183 0
-182 -482 217 0
-182 482 212 0
183 21 -135 -207 0
183 21 135 -184 0
-183 -21 0
-183 -135 207 0
-183 135 184 0
184 137 -185 0
184 -137 -197 0
-184 -137 197 0
-184 137 185 0
185 6 -186 0
-185 -6 0
-185 186 0
186 482 -187 0
186 -482 -194 0
-186 -482 194 0
-186 482 187 0
187 483 -188 0
187 -483 -191 0
-187 -483 191 0
-187 483 188 0
188 484 -189 0
188 -484 -190 0
-188 -484 190 0
-188 484 189 0
189 -444 -485 0
189 -443 485 0
-189 443 485 0
-189 444 -485 0
190 -446 -485 0
190 -445 485 0
-190 445 485 0
-190 446 -485 0
191 484 -192 0
191 -484 -193 0
-191 -484 193 0
-191 484 192 0
192 -448 -485 0
192 -447 485 0
-192 447 485 0
-192 448 -485 0
193 -450 -485 0
193 -449 485 0
-193 449 485 0
-193 450 -485 0
194 483 -195 0
-194 -483 0
-194 195 0
195 484 -196 0
195 -453 -484 485 0
-195 484 196 0
-195 -484 -485 0
-195 453 -484 0
196 -452 -485 0
196 -451 485 0
-196 451 485 0
-196 452 -485 0
197 13 198 199 -201 0
-197 201 0
-197 -13 0
-197 -199 0
-197 -198 0
-198 459 9 0
198 -459 0
198 -9 0
-199 17 153 200 0
199 -17 0
199 -153 0
199 -200 0
-200 456 457 458 4 0
200 -4 0
200 -458 0
200 -456 0
200 -457 0
201 -482 -206 0
201 482 -202 204 0
-201 482 202 0
-201 -482 206 0
-201 482 -204 0
-202 483 203 0
202 -483 0
202 -203 0
203 484 -190 0
203 -484 -192 0
-203 -484 192 0
-203 484 190 0
204 -483 205 0
-204 483 0
-204 -205 0
205 484 -193 0
205 -484 -196 0
-205 -484 196 0
-205 484 193 0
206 -453 483 484 485 0
-206 -485 0
-206 -484 0
-206 453 0
-206 -483 0
207 137 -208 0
207 -137 -210 0
-207 -137 210 0
-207 137 208 0
208 6 -209 0
-208 -6 0
-208 209 0
209 482 -194 0
-209 -482 0
-209 194 0
210 14 198 200 -211 0
-210 211 0
-210 -14 0
-210 -200 0
-210 -198 0
211 482 152 164 -206 0
-211 -482 0
-211 206 0
-211 -164 0
-211 -152 0
212 483 -213 0
212 -483 -215 0
-212 -483 215 0
-212 483 213 0
213 -484 -190 0
213 484 -214 0
-213 484 214 0
-213 -484 190 0
214 -485 -172 0
214 -443 485 0
-214 -485 172 0
-214 443 485 0
215 484 -192 0
215 -484 -216 0
-215 -484 216 0
-215 484 192 0
216 22 -193 0
-216 -22 0
-216 193 0
217 483 -218 0
-217 -483 0
-217 218 0
218 484 -219 0
218 -484 -220 0
-218 -484 220 0
-218 484 219 0
219 485 -178 0
219 -485 -180 0
-219 -485 180 0
-219 485 178 0
220 485 -181 0
-220 -485 0
-220 181 0
221 -482 222 -231 0
221 482 222 -228 0
-221 -222 0
-221 -482 231 0
-221 482 228 0
222 21 -135 -227 0
222 21 135 -223 0
-222 -21 0
-222 -135 227 0
-222 135 223 0
223 137 -151 0
223 -137 -224 0
-223 -137 224 0
-223 137 151 0
224 6 -225 0
-224 -6 0
-224 225 0
225 482 -226 0
-225 -482 0
-225 226 0
226 483 -144 0
226 -483 -148 0
-226 -483 148 0
-226 483 144 0
227 137 -168 0
-227 -137 0
-227 168 0
228 483 -229 0
228 -483 -230 0
-228 -483 230 0
-228 483 229 0
229 -484 -145 0
229 484 -171 0
-229 484 171 0
-229 -484 145 0
230 -484 -177 0
230 484 -174 0
-230 484 174 0
-230 -484 177 0
231 483 -232 0
-231 -483 0
-231 232 0
232 484 -179 0
-232 -484 0
-232 179 0
-233 234 -238 0
-233 -482 234 0
-233 234 236 0
233 -234 0
233 482 -236 238 0
234 482 -217 235 0
234 482 -21 -217 0
-234 -482 0
-234 217 0
-234 21 -235 0
235 135 -207 0
-235 -135 0
-235 207 0
236 483 -237 0
-236 -483 0
-236 237 0
237 484 -220 0
-237 -484 0
-237 220 0
238 21 135 -239 0
-238 -21 0
-238 -135 0
-238 239 0
239 137 -210 0
-239 -137 0
-239 210 0
-240 241 247 0
-240 -242 247 0
-240 -482 247 0
240 -247 0
240 482 -241 242 0
241 483 -230 0
241 -483 -232 0
-241 -483 232 0
-241 483 230 0
242 21 135 -243 0
-242 -21 0
-242 -135 0
-242 243 0
243 -137 -166 0
243 137 -244 0
-243 137 244 0
-243 -137 166 0
244 6 -245 0
-244 -6 0
-244 245 0
245 482 -246 0
-245 -482 0
-245 246 0
246 483 -157 0
246 -483 -159 0
-246 -483 159 0
-246 483 157 0
-247 248 256 0
-247 -250 256 0
-247 -482 256 0
247 -256 0
247 482 -248 250 0
248 -483 -237 0
248 483 -249 0
-248 483 249 0
-248 -483 237 0
249 484 -216 0
249 -484 -219 0
-249 -484 219 0
-249 484 216 0
250 21 135 -251 0
-250 -21 0
-250 -135 0
-250 251 0
251 -137 -208 0
251 137 -252 0
-251 137 252 0
-251 -137 208 0
252 6 -253 0
-252 -6 0
-252 253 0
253 482 -254 0
-253 -482 0
-253 254 0
254 483 -205 0
254 -483 -255 0
-254 -483 255 0
-254 483 205 0
255 -453 484 485 0
-255 453 0
-255 -485 0
-255 -484 0
-256 257 -259 0
-256 231 257 0
-256 -482 257 0
256 -257 0
256 482 -231 259 0
257 482 -175 258 0
257 482 -21 -175 0
-257 -482 0
-257 175 0
-257 21 -258 0
258 135 -165 0
-258 -135 0
-258 165 0
259 21 135 -227 0
-259 -21 0
-259 -135 0
-259 227 0
-260 261 264 0
-260 -262 264 0
-260 -482 264 0
260 -264 0
260 482 -261 262 0
261 483 -173 0
261 -483 -176 0
-261 -483 176 0
-261 483 173 0
262 21 135 -263 0
-262 -21 0
-262 -135 0
-262 263 0
263 137 -224 0
263 -137 -244 0
-263 -137 244 0
-263 137 224 0
-264 265 -273 0
-264 -482 265 0
-264 265 272 0
264 -265 0
264 482 -272 273 0
265 482 266 -271 0
265 -482 -236 266 0
-265 -266 0
-265 -482 236 0
-265 482 271 0
266 21 135 -267 0
266 21 -135 -239 0
-266 -21 0
-266 -135 239 0
-266 135 267 0
267 137 -197 0
267 -137 -268 0
-267 -137 268 0
-267 137 197 0
268 6 -269 0
-268 -6 0
-268 269 0
269 482 -270 0
-269 -482 0
-269 270 0
270 483 -191 0
270 -483 -195 0
-270 -483 195 0
-270 483 191 0
271 -202 -249 0
271 483 -202 0
-271 202 0
-271 -483 249 0
272 483 -215 0
272 -483 -218 0
-272 -483 218 0
-272 483 215 0
273 21 135 -274 0
-273 -21 0
-273 -135 0
-273 274 0
274 -137 -252 0
274 137 -268 0
-274 137 268 0
-274 -137 252 0
-275 321 337 0
-275 22 -276 337 0
275 -337 0
275 276 -321 0
275 -22 -321 0
-276 -134 318 0
-276 134 277 313 0
276 134 -277 0
276 -134 -318 0
276 134 -313 0
277 135 -299 0
277 135 -137 -278 0
-277 -135 0
-277 137 299 0
-277 278 299 0
278 -481 7 -294 0
278 481 7 -279 0
-278 -7 0
-278 -481 294 0
-278 481 279 0
-279 -482 286 0
-279 280 283 286 0
279 -286 0
279 482 -280 0
279 482 -283 0
280 483 484 -282 0
280 483 -484 -281 0
-280 -483 0
-280 -484 281 0
-280 484 282 0
281 -428 -485 0
281 -427 485 0
-281 427 485 0
-281 428 -485 0
282 -426 -485 0
282 -425 485 0
-282 425 485 0
-282 426 -485 0
283 -483 -484 -285 0
283 -483 484 -284 0
-283 483 0
-283 -484 285 0
-283 484 284 0
284 -430 -485 0
284 -429 485 0
-284 429 485 0
-284 430 -485 0
285 -432 -485 0
285 -431 485 0
-285 431 485 0
-285 432 -485 0
286 -482 -287 0
-286 482 0
-286 287 0
287 483 -288 0
287 -483 -291 0
-287 -483 291 0
-287 483 288 0
288 484 -289 0
288 -484 -290 0
-288 -484 290 0
-288 484 289 0
289 -434 -485 0
289 -433 485 0
-289 433 485 0
-289 434 -485 0
290 -436 -485 0
290 -435 485 0
-290 435 485 0
-290 436 -485 0
291 484 -292 0
291 -484 -293 0
-291 -484 293 0
-291 484 292 0
292 -438 -485 0
292 -437 485 0
-292 437 485 0
-292 438 -485 0
293 -440 -485 0
293 -439 485 0
-293 439 485 0
-293 440 -485 0
294 -482 -254 0
294 482 -295 0
-294 482 295 0
-294 -482 254 0
295 -483 298 0
295 -296 298 0
-295 -298 0
-295 483 296 0
296 -484 -189 0
296 484 -297 0
-296 484 297 0
-296 -484 189 0
297 -442 -485 0
297 -441 485 0
-297 441 485 0
-297 442 -485 0
298 -483 203 0
-298 483 0
-298 -203 0
299 481 -300 308 0
299 -481 308 -309 0
-299 -308 0
-299 -481 309 0
-299 481 300 0
300 -482 -301 0
300 482 -306 0
300 482 -304 0
-300 -482 301 0
-300 482 304 306 0
301 483 -302 0
301 -483 -303 0
-301 -483 303 0
-301 483 302 0
302 484 -285 0
302 -484 -289 0
-302 -484 289 0
-302 484 285 0
303 484 -290 0
303 -484 -292 0
-303 -484 292 0
-303 484 290 0
304 483 484 -305 0
304 483 -484 -282 0
-304 -483 0
-304 -484 282 0
-304 484 305 0
305 -424 -485 0
305 -423 485 0
-305 423 485 0
-305 424 -485 0
306 -483 -307 0
-306 483 0
-306 307 0
307 484 -281 0
307 -484 -284 0
-307 -484 284 0
-307 484 281 0
-308 7 137 0
308 -7 0
308 -137 0
309 -482 -270 0
309 482 -310 0
-309 482 310 0
-309 -482 270 0
310 -188 -311 0
310 483 -311 0
-310 311 0
-310 -483 188 0
-311 483 312 0
311 -483 0
311 -312 0
312 484 -293 0
312 -484 -297 0
-312 -484 297 0
-312 484 293 0
313 -135 -137 -316 0
313 -135 137 -314 0
-313 135 0
-313 -137 316 0
-313 137 314 0
314 481 7 -315 0
314 -481 7 -269 0
-314 -7 0
-314 -481 269 0
-314 481 315 0
315 482 -301 0
315 -482 -310 0
-315 -482 310 0
-315 482 301 0
316 481 7 -317 0
316 -481 7 -253 0
-316 -7 0
-316 -481 253 0
-316 481 317 0
317 482 -287 0
317 -482 -295 0
-317 -482 295 0
-317 482 287 0
318 -135 -274 0
318 135 -319 0
-318 135 319 0
-318 -135 274 0
319 -137 -320 0
319 6 137 -309 0
-319 137 309 0
-319 -137 320 0
-319 -6 137 0
320 6 -294 0
-320 -6 0
-320 294 0
321 -481 322 -335 0
321 481 322 -329 0
-321 -322 0
-321 -481 335 0
-321 481 329 0
-322 323 324 326 327 0
322 -327 0
322 -323 0
322 -326 0
322 -324 0
-323 460 461 0
323 -460 0
323 -461 0
-324 474 475 16 325 0
324 -474 0
324 -325 0
324 -16 0
324 -475 0
-325 476 477 0
325 -476 0
325 -477 0
-326 468 471 472 473 0
326 -473 0
326 -472 0
326 -468 0
326 -471 0
-327 328 10 12 14 0
327 -14 0
327 -328 0
327 -12 0
327 -10 0
-328 458 459 0
328 -458 0
328 -459 0
-329 -482 301 0
-329 482 304 330 0
329 -482 -301 0
329 482 -330 0
329 482 -304 0
330 -483 -484 -333 0
330 -483 484 -331 0
-330 483 0
-330 -484 333 0
-330 484 331 0
331 -485 -332 0
331 -427 485 0
-331 -485 332 0
-331 427 485 0
-332 428 134 0
332 -428 0
332 -134 0
333 -430 -485 0
333 485 -334 0
-333 430 -485 0
-333 485 334 0
-334 429 134 0
334 -429 0
334 -134 0
335 -482 -272 0
335 482 -311 336 0
-335 482 -336 0
-335 -482 272 0
-335 482 311 0
336 -483 213 0
-336 483 0
-336 -213 0
337 -22 322 -349 0
337 322 338 -349 0
-337 -322 0
-337 349 0
-337 22 -338 0
-338 -134 347 0
-338 134 339 344 0
338 134 -339 0
338 -134 -347 0
338 134 -344 0
339 135 -137 -340 0
339 135 137 -278 0
-339 -135 0
-339 -137 340 0
-339 137 278 0
340 481 7 -341 0
340 -481 7 -186 0
-340 -7 0
-340 481 341 0
-340 -481 186 0
-341 482 342 0
-341 -482 343 0
341 -482 -343 0
341 482 -342 0
-342 483 307 0
-342 -483 302 0
342 -483 -302 0
342 483 -307 0
343 483 -303 0
343 -483 -312 0
-343 -483 312 0
-343 483 303 0
344 -135 -137 -345 0
344 -135 137 -316 0
-344 135 0
-344 -137 345 0
-344 137 316 0
345 481 7 -346 0
345 -481 7 -209 0
-345 -7 0
-345 -481 209 0
-345 481 346 0
346 -482 -187 0
346 482 -343 0
-346 482 343 0
-346 -482 187 0
347 -135 -251 0
347 135 -348 0
-347 135 348 0
-347 -135 251 0
348 -137 -185 0
348 137 -320 0
-348 137 320 0
-348 -137 185 0
-349 -481 353 0
-349 481 286 350 0
349 481 -286 0
349 -481 -353 0
349 481 -350 0
350 482 -483 -352 0
350 482 483 -351 0
-350 -482 0
-350 -483 352 0
-350 483 351 0
-351 -484 331 0
-351 484 282 0
351 484 -282 0
351 -484 -331 0
352 -484 -285 0
352 484 -333 0
-352 484 333 0
-352 -484 285 0
353 -482 -248 0
353 482 298 -354 0
-353 482 354 0
-353 -482 248 0
-353 482 -298 0
-354 483 -484 214 0
-354 483 484 297 0
354 -483 0
354 -484 -214 0
354 484 -297 0
-355 356 417 0
-355 22 356 -406 0
355 -356 0
355 -22 -417 0
355 406 -417 0
356 -22 322 -400 0
356 322 357 -400 0
-356 -322 0
-356 400 0
-356 22 -357 0
-357 -134 397 0
-357 134 358 392 0
357 134 -358 0
357 -134 -397 0
357 134 -392 0
358 135 -379 0
358 135 -137 -359 0
-358 -135 0
-358 137 379 0
-358 359 379 0
359 -481 7 -375 0
359 481 7 -360 0
-359 -7 0
-359 -481 375 0
-359 481 360 0
-360 -482 367 0
-360 361 364 367 0
360 -367 0
360 482 -361 0
360 482 -364 0
361 483 484 -363 0
361 483 -484 -362 0
-361 -483 0
-361 -484 362 0
-361 484 363 0
362 -427 -485 0
362 -426 485 0
-362 426 485 0
-362 427 -485 0
363 -425 -485 0
363 -424 485 0
-363 424 485 0
-363 425 -485 0
364 -483 484 -366 0
364 -483 -484 -365 0
-364 483 0
-364 -484 365 0
-364 484 366 0
365 -431 -485 0
365 -430 485 0
-365 430 485 0
-365 431 -485 0
366 -429 -485 0
366 -428 485 0
-366 428 485 0
-366 429 -485 0
367 -482 -368 0
-367 482 0
-367 368 0
368 483 -369 0
368 -483 -372 0
-368 -483 372 0
-368 483 369 0
369 484 -370 0
369 -484 -371 0
-369 -484 371 0
-369 484 370 0
370 -433 -485 0
370 -432 485 0
-370 432 485 0
-370 433 -485 0
371 -435 -485 0
371 -434 485 0
-371 434 485 0
-371 435 -485 0
372 484 -373 0
372 -484 -374 0
-372 -484 374 0
-372 484 373 0
373 -437 -485 0
373 -436 485 0
-373 436 485 0
-373 437 -485 0
374 -439 -485 0
374 -438 485 0
-374 438 485 0
-374 439 -485 0
375 -482 -246 0
375 482 -376 0
-375 482 376 0
-375 -482 246 0
376 -156 -377 0
376 483 -377 0
-376 377 0
-376 -483 156 0
-377 483 -484 142 0
-377 483 484 378 0
377 -483 0
377 -484 -142 0
377 484 -378 0
378 -441 -485 0
378 -440 485 0
-378 440 485 0
-378 441 -485 0
379 -481 308 -388 0
379 481 308 -380 0
-379 -308 0
-379 -481 388 0
-379 481 380 0
380 -482 -381 0
380 482 -386 0
380 482 -384 0
-380 -482 381 0
-380 482 384 386 0
381 483 -382 0
381 -483 -383 0
-381 -483 383 0
-381 483 382 0
382 484 -365 0
382 -484 -370 0
-382 -484 370 0
-382 484 365 0
383 484 -371 0
383 -484 -373 0
-383 -484 373 0
-383 484 371 0
384 483 484 -385 0
384 483 -484 -363 0
-384 -483 0
-384 -484 363 0
-384 484 385 0
385 -423 -485 0
385 -422 485 0
-385 422 485 0
-385 423 -485 0
386 -483 -387 0
-386 483 0
-386 387 0
387 484 -362 0
387 -484 -366 0
-387 -484 366 0
-387 484 362 0
388 -482 -226 0
388 482 -389 0
-388 482 389 0
-388 -482 226 0
389 -141 -390 0
389 483 -390 0
-389 390 0
-389 -483 141 0
-390 483 391 0
390 -483 0
390 -391 0
391 484 -374 0
391 -484 -378 0
-391 -484 378 0
-391 484 374 0
392 -135 -137 -395 0
392 -135 137 -393 0
-392 135 0
-392 -137 395 0
-392 137 393 0
393 481 7 -394 0
393 -481 7 -225 0
-393 -7 0
-393 -481 225 0
-393 481 394 0
394 482 -381 0
394 -482 -389 0
-394 -482 389 0
-394 482 381 0
395 481 7 -396 0
395 -481 7 -245 0
-395 -7 0
-395 -481 245 0
-395 481 396 0
396 482 -368 0
396 -482 -376 0
-396 -482 376 0
-396 482 368 0
397 -135 -263 0
397 135 -398 0
-397 135 398 0
-397 -135 263 0
398 -137 -399 0
398 6 137 -388 0
-398 137 388 0
-398 -137 399 0
-398 -6 137 0
399 6 -375 0
-399 -6 0
-399 375 0
-400 481 401 0
-400 -481 404 0
400 -481 -404 0
400 481 -401 0
-401 -482 381 0
-401 482 384 402 0
401 -482 -381 0
401 482 -402 0
401 482 -384 0
402 -483 -484 -403 0
402 -483 484 -362 0
-402 483 0
-402 -484 403 0
-402 484 362 0
403 -134 0
403 -429 -485 0
403 -428 485 0
-403 428 485 134 0
-403 429 -485 134 0
404 -482 -261 0
404 482 -390 405 0
-404 482 -405 0
-404 -482 261 0
-404 482 390 0
405 -483 170 0
-405 483 0
-405 -170 0
-406 -134 415 0
-406 134 407 412 0
406 134 -407 0
406 -134 -415 0
406 134 -412 0
407 135 -137 -408 0
407 135 137 -359 0
-407 -135 0
-407 -137 408 0
-407 137 359 0
408 481 7 -409 0
408 -481 7 -139 0
-408 -7 0
-408 481 409 0
-408 -481 139 0
-409 482 410 0
-409 -482 411 0
409 -482 -411 0
409 482 -410 0
-410 483 387 0
-410 -483 382 0
410 -483 -382 0
410 483 -387 0
411 483 -383 0
411 -483 -391 0
-411 -483 391 0
-411 483 383 0
412 -135 -137 -413 0
412 -135 137 -395 0
-412 135 0
-412 -137 413 0
-412 137 395 0
413 481 7 -414 0
413 -481 7 -167 0
-413 -7 0
-413 -481 167 0
-413 481 414 0
414 -482 -140 0
414 482 -411 0
-414 482 411 0
-414 -482 140 0
415 -135 -243 0
415 135 -416 0
-415 135 416 0
-415 -135 243 0
416 -137 -138 0
416 137 -399 0
-416 137 399 0
-416 -137 138 0
417 -481 322 -420 0
417 481 322 -418 0
-417 -322 0
-417 -481 420 0
-417 481 418 0
-418 -482 367 0
-418 361 367 419 0
418 -367 0
418 482 -419 0
418 482 -361 0
419 -483 484 -403 0
419 -483 -484 -365 0
-419 483 0
-419 -484 365 0
-419 484 403 0
420 -482 -241 0
420 482 -377 421 0
-420 482 -421 0
-420 -482 241 0
-420 482 377 0
421 -483 229 0
-421 483 0
-421 -229 0
-486 0
2 0

